c Arquivo convertido de cubic_100.txt
p edge 100 150
e 0 16
e 0 28
e 0 31
e 1 59
e 1 89
e 1 95
e 2 22
e 2 52
e 2 81
e 3 34
e 3 49
e 3 72
e 4 11
e 4 15
e 4 75
e 5 36
e 5 60
e 5 96
e 6 11
e 6 47
e 6 84
e 7 17
e 7 34
e 7 81
e 8 25
e 8 51
e 8 86
e 9 33
e 9 69
e 9 88
e 10 39
e 10 43
e 10 48
e 11 20
e 12 19
e 12 21
e 12 58
e 13 51
e 13 56
e 13 63
e 14 29
e 14 63
e 14 69
e 15 92
e 15 97
e 16 22
e 16 23
e 17 23
e 17 78
e 18 38
e 18 47
e 18 51
e 19 46
e 19 71
e 20 76
e 20 96
e 21 40
e 21 98
e 22 79
e 23 85
e 24 58
e 24 62
e 24 90
e 25 48
e 25 81
e 26 31
e 26 59
e 26 71
e 27 41
e 27 68
e 27 85
e 28 69
e 28 77
e 29 67
e 29 99
e 30 36
e 30 50
e 30 68
e 31 72
e 32 37
e 32 74
e 32 92
e 33 68
e 33 99
e 34 65
e 35 39
e 35 58
e 35 70
e 36 80
e 37 53
e 37 95
e 38 75
e 38 98
e 39 46
e 40 78
e 40 87
e 41 57
e 41 83
e 42 63
e 42 73
e 42 91
e 43 64
e 43 82
e 44 50
e 44 66
e 44 94
e 45 49
e 45 80
e 45 97
e 46 54
e 47 71
e 48 70
e 49 93
e 50 93
e 52 61
e 52 77
e 53 78
e 53 96
e 54 86
e 54 94
e 55 75
e 55 84
e 55 98
e 56 62
e 56 82
e 57 73
e 57 83
e 59 79
e 60 83
e 60 85
e 61 80
e 61 90
e 62 70
e 64 77
e 64 93
e 65 74
e 65 76
e 66 67
e 66 87
e 67 99
e 72 87
e 73 74
e 76 89
e 79 88
e 82 89
e 84 91
e 86 88
e 90 95
e 91 94
e 92 97
